\ Model Q4a
\ LP format - for model browsing. Use MPS format to capture full model detail.
Minimize
  490 X[1] + 440 X[2] + 400 X[3]
Subject To
 R0: X[1] + X[2] + X[3] = 80
 R1: X[1] >= 8
 R2: 50 X[1] + 40 X[2] + 30 X[3] >= 3000
Bounds
Generals
 X[1] X[2] X[3]
End
